p cnf 430 1488
-191 137 0
-191 173 0
-191 -94 0
-191 13 0
-191 175 0
191 -137 -173 94 -13 -175 0
-192 138 0
-192 68 0
-192 85 0
-192 -148 0
-192 86 0
192 -138 -68 -85 148 -86 0
-193 -33 0
-193 74 0
-193 47 0
-193 -65 0
-193 151 0
193 33 -74 -47 65 -151 0
-194 1 0
-194 98 0
-194 49 0
-194 -3 0
-194 12 0
194 -1 -98 -49 3 -12 0
-195 134 0
-195 -67 0
-195 5 0
-195 101 0
-195 96 0
195 -134 67 -5 -101 -96 0
191 192 193 194 195 0
-196 -50 0
-196 181 0
-196 21 0
-196 -111 0
-196 66 0
196 50 -181 -21 111 -66 0
-197 -157 0
-197 -4 0
-197 -42 0
-197 38 0
-197 67 0
197 157 4 42 -38 -67 0
-198 -36 0
-198 120 0
-198 178 0
-198 -55 0
-198 113 0
198 36 -120 -178 55 -113 0
-199 -86 0
-199 46 0
-199 129 0
-199 179 0
-199 -76 0
199 86 -46 -129 -179 76 0
-200 -7 0
-200 30 0
-200 -158 0
-200 -69 0
-200 -135 0
200 7 -30 158 69 135 0
196 197 198 199 200 0
-201 -41 0
-201 -158 0
-201 115 0
-201 77 0
-201 4 0
201 41 158 -115 -77 -4 0
-202 92 0
-202 57 0
-202 -90 0
-202 51 0
-202 31 0
202 -92 -57 90 -51 -31 0
-203 91 0
-203 -47 0
-203 -162 0
-203 -19 0
-203 189 0
203 -91 47 162 19 -189 0
-204 72 0
-204 137 0
-204 -18 0
-204 11 0
-204 -139 0
204 -72 -137 18 -11 139 0
-205 -106 0
-205 -74 0
-205 -63 0
-205 132 0
-205 159 0
205 106 74 63 -132 -159 0
201 202 203 204 205 0
-206 103 0
-206 -77 0
-206 114 0
-206 -44 0
-206 -43 0
206 -103 77 -114 44 43 0
-207 -25 0
-207 -36 0
-207 9 0
-207 -4 0
-207 138 0
207 25 36 -9 4 -138 0
-208 134 0
-208 87 0
-208 -162 0
-208 -132 0
-208 -123 0
208 -134 -87 162 132 123 0
-209 -19 0
-209 153 0
-209 113 0
-209 -11 0
-209 -8 0
209 19 -153 -113 11 8 0
-210 91 0
-210 -83 0
-210 -162 0
-210 -102 0
-210 96 0
210 -91 83 162 102 -96 0
206 207 208 209 210 0
-211 50 0
-211 13 0
-211 -41 0
-211 4 0
-211 129 0
211 -50 -13 41 -4 -129 0
-212 156 0
-212 50 0
-212 142 0
-212 -2 0
-212 131 0
212 -156 -50 -142 2 -131 0
-213 152 0
-213 123 0
-213 -7 0
-213 136 0
-213 140 0
213 -152 -123 7 -136 -140 0
-214 -20 0
-214 55 0
-214 167 0
-214 170 0
-214 -139 0
214 20 -55 -167 -170 139 0
-215 123 0
-215 99 0
-215 -160 0
-215 127 0
-215 -108 0
215 -123 -99 160 -127 108 0
211 212 213 214 215 0
-216 117 0
-216 100 0
-216 -14 0
-216 -28 0
-216 -9 0
216 -117 -100 14 28 9 0
-217 34 0
-217 144 0
-217 -57 0
-217 -177 0
-217 -89 0
217 -34 -144 57 177 89 0
-218 -161 0
-218 154 0
-218 185 0
-218 -128 0
-218 -76 0
218 161 -154 -185 128 76 0
-219 6 0
-219 181 0
-219 141 0
-219 85 0
-219 -155 0
219 -6 -181 -141 -85 155 0
-220 -1 0
-220 -92 0
-220 85 0
-220 -181 0
-220 3 0
220 1 92 -85 181 -3 0
216 217 218 219 220 0
-221 135 0
-221 174 0
-221 -121 0
-221 116 0
-221 -26 0
221 -135 -174 121 -116 26 0
-222 132 0
-222 8 0
-222 70 0
-222 -48 0
-222 -169 0
222 -132 -8 -70 48 169 0
-223 46 0
-223 -133 0
-223 -154 0
-223 -38 0
-223 56 0
223 -46 133 154 38 -56 0
-224 133 0
-224 -1 0
-224 -149 0
-224 -27 0
-224 -173 0
224 -133 1 149 27 173 0
-225 -72 0
-225 -101 0
-225 -173 0
-225 60 0
-225 118 0
225 72 101 173 -60 -118 0
221 222 223 224 225 0
-226 18 0
-226 31 0
-226 -104 0
-226 -59 0
-226 136 0
226 -18 -31 104 59 -136 0
-227 -154 0
-227 -21 0
-227 -110 0
-227 -122 0
-227 -190 0
227 154 21 110 122 190 0
-228 128 0
-228 120 0
-228 133 0
-228 2 0
-228 179 0
228 -128 -120 -133 -2 -179 0
-229 -73 0
-229 116 0
-229 -77 0
-229 -171 0
-229 -91 0
229 73 -116 77 171 91 0
-230 -125 0
-230 -50 0
-230 112 0
-230 179 0
-230 120 0
230 125 50 -112 -179 -120 0
226 227 228 229 230 0
-231 73 0
-231 143 0
-231 99 0
-231 -76 0
-231 28 0
231 -73 -143 -99 76 -28 0
-232 181 0
-232 -159 0
-232 -90 0
-232 129 0
-232 61 0
232 -181 159 90 -129 -61 0
-233 -45 0
-233 -43 0
-233 66 0
-233 79 0
-233 -39 0
233 45 43 -66 -79 39 0
-234 -179 0
-234 161 0
-234 138 0
-234 104 0
-234 -52 0
234 179 -161 -138 -104 52 0
-235 -69 0
-235 166 0
-235 100 0
-235 92 0
-235 33 0
235 69 -166 -100 -92 -33 0
231 232 233 234 235 0
-236 6 0
-236 52 0
-236 -32 0
-236 86 0
-236 26 0
236 -6 -52 32 -86 -26 0
-237 158 0
-237 145 0
-237 167 0
-237 161 0
-237 -51 0
237 -158 -145 -167 -161 51 0
-238 -89 0
-238 -96 0
-238 -28 0
-238 -77 0
-238 53 0
238 89 96 28 77 -53 0
-239 146 0
-239 -80 0
-239 -5 0
-239 -107 0
-239 -14 0
239 -146 80 5 107 14 0
-240 86 0
-240 119 0
-240 143 0
-240 74 0
-240 -138 0
240 -86 -119 -143 -74 138 0
236 237 238 239 240 0
-241 176 0
-241 -96 0
-241 189 0
-241 -155 0
-241 90 0
241 -176 96 -189 155 -90 0
-242 -55 0
-242 91 0
-242 -126 0
-242 150 0
-242 180 0
242 55 -91 126 -150 -180 0
-243 -68 0
-243 102 0
-243 -162 0
-243 -19 0
-243 -167 0
243 68 -102 162 19 167 0
-244 135 0
-244 34 0
-244 36 0
-244 182 0
-244 -99 0
244 -135 -34 -36 -182 99 0
-245 156 0
-245 36 0
-245 -17 0
-245 -13 0
-245 108 0
245 -156 -36 17 13 -108 0
241 242 243 244 245 0
-246 -118 0
-246 -22 0
-246 117 0
-246 -113 0
-246 -135 0
246 118 22 -117 113 135 0
-247 -168 0
-247 -151 0
-247 190 0
-247 111 0
-247 62 0
247 168 151 -190 -111 -62 0
-248 127 0
-248 152 0
-248 -68 0
-248 171 0
-248 -170 0
248 -127 -152 68 -171 170 0
-249 -150 0
-249 -82 0
-249 80 0
-249 43 0
-249 139 0
249 150 82 -80 -43 -139 0
-250 38 0
-250 -93 0
-250 102 0
-250 -64 0
-250 116 0
250 -38 93 -102 64 -116 0
246 247 248 249 250 0
-251 126 0
-251 -12 0
-251 -11 0
-251 -61 0
-251 47 0
251 -126 12 11 61 -47 0
-252 190 0
-252 12 0
-252 187 0
-252 -144 0
-252 99 0
252 -190 -12 -187 144 -99 0
-253 120 0
-253 52 0
-253 4 0
-253 -30 0
-253 140 0
253 -120 -52 -4 30 -140 0
-254 -178 0
-254 -4 0
-254 -132 0
-254 -188 0
-254 186 0
254 178 4 132 188 -186 0
-255 -41 0
-255 22 0
-255 -164 0
-255 148 0
-255 66 0
255 41 -22 164 -148 -66 0
251 252 253 254 255 0
-256 -35 0
-256 121 0
-256 -127 0
-256 -22 0
-256 84 0
256 35 -121 127 22 -84 0
-257 164 0
-257 -142 0
-257 116 0
-257 -1 0
-257 163 0
257 -164 142 -116 1 -163 0
-258 73 0
-258 156 0
-258 14 0
-258 22 0
-258 108 0
258 -73 -156 -14 -22 -108 0
-259 169 0
-259 29 0
-259 -131 0
-259 101 0
-259 41 0
259 -169 -29 131 -101 -41 0
-260 -60 0
-260 4 0
-260 -108 0
-260 168 0
-260 137 0
260 60 -4 108 -168 -137 0
256 257 258 259 260 0
-261 -116 0
-261 143 0
-261 -148 0
-261 -135 0
-261 14 0
261 116 -143 148 135 -14 0
-262 138 0
-262 156 0
-262 101 0
-262 -190 0
-262 -160 0
262 -138 -156 -101 190 160 0
-263 33 0
-263 -80 0
-263 -173 0
-263 170 0
-263 63 0
263 -33 80 173 -170 -63 0
-264 68 0
-264 -9 0
-264 -125 0
-264 -182 0
-264 -18 0
264 -68 9 125 182 18 0
-265 75 0
-265 91 0
-265 34 0
-265 105 0
-265 -44 0
265 -75 -91 -34 -105 44 0
261 262 263 264 265 0
-266 -137 0
-266 21 0
-266 -144 0
-266 87 0
-266 15 0
266 137 -21 144 -87 -15 0
-267 -114 0
-267 -30 0
-267 -129 0
-267 76 0
-267 105 0
267 114 30 129 -76 -105 0
-268 84 0
-268 -143 0
-268 -61 0
-268 -36 0
-268 185 0
268 -84 143 61 36 -185 0
-269 -110 0
-269 -166 0
-269 -29 0
-269 -108 0
-269 -72 0
269 110 166 29 108 72 0
-270 106 0
-270 -166 0
-270 -60 0
-270 98 0
-270 -165 0
270 -106 166 60 -98 165 0
266 267 268 269 270 0
-271 -186 0
-271 86 0
-271 -74 0
-271 -147 0
-271 20 0
271 186 -86 74 147 -20 0
-272 190 0
-272 11 0
-272 142 0
-272 111 0
-272 -159 0
272 -190 -11 -142 -111 159 0
-273 184 0
-273 -127 0
-273 109 0
-273 -120 0
-273 90 0
273 -184 127 -109 120 -90 0
-274 -12 0
-274 -99 0
-274 70 0
-274 -151 0
-274 -156 0
274 12 99 -70 151 156 0
-275 -106 0
-275 134 0
-275 5 0
-275 -72 0
-275 -163 0
275 106 -134 -5 72 163 0
271 272 273 274 275 0
-276 -161 0
-276 82 0
-276 -14 0
-276 50 0
-276 -72 0
276 161 -82 14 -50 72 0
-277 90 0
-277 -187 0
-277 -166 0
-277 -88 0
-277 -100 0
277 -90 187 166 88 100 0
-278 113 0
-278 -98 0
-278 -32 0
-278 -123 0
-278 85 0
278 -113 98 32 123 -85 0
-279 -4 0
-279 19 0
-279 -94 0
-279 -182 0
-279 -122 0
279 4 -19 94 182 122 0
-280 -89 0
-280 -179 0
-280 -37 0
-280 -35 0
-280 -93 0
280 89 179 37 35 93 0
276 277 278 279 280 0
-281 -129 0
-281 148 0
-281 -99 0
-281 185 0
-281 -108 0
281 129 -148 99 -185 108 0
-282 -118 0
-282 1 0
-282 122 0
-282 83 0
-282 148 0
282 118 -1 -122 -83 -148 0
-283 -83 0
-283 180 0
-283 -45 0
-283 -105 0
-283 95 0
283 83 -180 45 105 -95 0
-284 -118 0
-284 -29 0
-284 16 0
-284 -79 0
-284 -51 0
284 118 29 -16 79 51 0
-285 -88 0
-285 15 0
-285 38 0
-285 -132 0
-285 129 0
285 88 -15 -38 132 -129 0
281 282 283 284 285 0
-286 -160 0
-286 -116 0
-286 47 0
-286 35 0
-286 -65 0
286 160 116 -47 -35 65 0
-287 117 0
-287 159 0
-287 -28 0
-287 154 0
-287 -82 0
287 -117 -159 28 -154 82 0
-288 -186 0
-288 75 0
-288 128 0
-288 -12 0
-288 48 0
288 186 -75 -128 12 -48 0
-289 -6 0
-289 19 0
-289 73 0
-289 116 0
-289 188 0
289 6 -19 -73 -116 -188 0
-290 155 0
-290 -101 0
-290 61 0
-290 179 0
-290 -148 0
290 -155 101 -61 -179 148 0
286 287 288 289 290 0
-291 -42 0
-291 -31 0
-291 174 0
-291 -32 0
-291 -64 0
291 42 31 -174 32 64 0
-292 68 0
-292 23 0
-292 74 0
-292 14 0
-292 -48 0
292 -68 -23 -74 -14 48 0
-293 111 0
-293 153 0
-293 33 0
-293 -75 0
-293 -39 0
293 -111 -153 -33 75 39 0
-294 -71 0
-294 -143 0
-294 -56 0
-294 -40 0
-294 170 0
294 71 143 56 40 -170 0
-295 8 0
-295 -74 0
-295 -156 0
-295 165 0
-295 56 0
295 -8 74 156 -165 -56 0
291 292 293 294 295 0
-296 181 0
-296 -2 0
-296 -158 0
-296 -19 0
-296 26 0
296 -181 2 158 19 -26 0
-297 37 0
-297 -34 0
-297 -50 0
-297 -43 0
-297 23 0
297 -37 34 50 43 -23 0
-298 -138 0
-298 110 0
-298 53 0
-298 52 0
-298 34 0
298 138 -110 -53 -52 -34 0
-299 -45 0
-299 105 0
-299 36 0
-299 140 0
-299 -9 0
299 45 -105 -36 -140 9 0
-300 24 0
-300 56 0
-300 -47 0
-300 165 0
-300 -86 0
300 -24 -56 47 -165 86 0
296 297 298 299 300 0
-301 107 0
-301 11 0
-301 167 0
-301 61 0
-301 75 0
301 -107 -11 -167 -61 -75 0
-302 128 0
-302 148 0
-302 61 0
-302 30 0
-302 -35 0
302 -128 -148 -61 -30 35 0
-303 -100 0
-303 -137 0
-303 10 0
-303 142 0
-303 22 0
303 100 137 -10 -142 -22 0
-304 34 0
-304 27 0
-304 -70 0
-304 125 0
-304 134 0
304 -34 -27 70 -125 -134 0
-305 57 0
-305 -111 0
-305 -150 0
-305 135 0
-305 43 0
305 -57 111 150 -135 -43 0
301 302 303 304 305 0
-306 170 0
-306 152 0
-306 121 0
-306 -16 0
-306 -79 0
306 -170 -152 -121 16 79 0
-307 106 0
-307 -81 0
-307 93 0
-307 143 0
-307 -153 0
307 -106 81 -93 -143 153 0
-308 146 0
-308 29 0
-308 -105 0
-308 -37 0
-308 189 0
308 -146 -29 105 37 -189 0
-309 -28 0
-309 -41 0
-309 -10 0
-309 76 0
-309 112 0
309 28 41 10 -76 -112 0
-310 -95 0
-310 70 0
-310 -151 0
-310 -106 0
-310 -8 0
310 95 -70 151 106 8 0
306 307 308 309 310 0
-311 -188 0
-311 46 0
-311 -56 0
-311 -109 0
-311 -187 0
311 188 -46 56 109 187 0
-312 47 0
-312 -50 0
-312 -173 0
-312 172 0
-312 -58 0
312 -47 50 173 -172 58 0
-313 31 0
-313 47 0
-313 179 0
-313 153 0
-313 -14 0
313 -31 -47 -179 -153 14 0
-314 182 0
-314 -135 0
-314 -20 0
-314 -172 0
-314 -174 0
314 -182 135 20 172 174 0
-315 19 0
-315 -43 0
-315 -1 0
-315 45 0
-315 109 0
315 -19 43 1 -45 -109 0
311 312 313 314 315 0
-316 -170 0
-316 -83 0
-316 9 0
-316 -78 0
-316 92 0
316 170 83 -9 78 -92 0
-317 98 0
-317 -108 0
-317 35 0
-317 147 0
-317 -81 0
317 -98 108 -35 -147 81 0
-318 54 0
-318 174 0
-318 -89 0
-318 -168 0
-318 59 0
318 -54 -174 89 168 -59 0
-319 25 0
-319 53 0
-319 -56 0
-319 105 0
-319 -159 0
319 -25 -53 56 -105 159 0
-320 149 0
-320 111 0
-320 108 0
-320 -103 0
-320 87 0
320 -149 -111 -108 103 -87 0
316 317 318 319 320 0
-321 -168 0
-321 -143 0
-321 -32 0
-321 128 0
-321 -100 0
321 168 143 32 -128 100 0
-322 -97 0
-322 -190 0
-322 -59 0
-322 -114 0
-322 -41 0
322 97 190 59 114 41 0
-323 164 0
-323 86 0
-323 89 0
-323 -104 0
-323 -157 0
323 -164 -86 -89 104 157 0
-324 149 0
-324 144 0
-324 -95 0
-324 -77 0
-324 177 0
324 -149 -144 95 77 -177 0
-325 19 0
-325 -133 0
-325 159 0
-325 -117 0
-325 45 0
325 -19 133 -159 117 -45 0
321 322 323 324 325 0
-326 170 0
-326 47 0
-326 -48 0
-326 -76 0
-326 165 0
326 -170 -47 48 76 -165 0
-327 112 0
-327 32 0
-327 33 0
-327 -45 0
-327 174 0
327 -112 -32 -33 45 -174 0
-328 174 0
-328 -82 0
-328 -17 0
-328 -172 0
-328 144 0
328 -174 82 17 172 -144 0
-329 -43 0
-329 -158 0
-329 53 0
-329 160 0
-329 121 0
329 43 158 -53 -160 -121 0
-330 156 0
-330 129 0
-330 50 0
-330 56 0
-330 -131 0
330 -156 -129 -50 -56 131 0
326 327 328 329 330 0
-331 -37 0
-331 152 0
-331 -66 0
-331 -20 0
-331 89 0
331 37 -152 66 20 -89 0
-332 -77 0
-332 23 0
-332 -136 0
-332 114 0
-332 -165 0
332 77 -23 136 -114 165 0
-333 -151 0
-333 -145 0
-333 79 0
-333 -30 0
-333 -53 0
333 151 145 -79 30 53 0
-334 -33 0
-334 178 0
-334 1 0
-334 -155 0
-334 -78 0
334 33 -178 -1 155 78 0
-335 13 0
-335 -91 0
-335 113 0
-335 -119 0
-335 -188 0
335 -13 91 -113 119 188 0
331 332 333 334 335 0
-336 -34 0
-336 13 0
-336 35 0
-336 116 0
-336 -5 0
336 34 -13 -35 -116 5 0
-337 135 0
-337 169 0
-337 -18 0
-337 155 0
-337 158 0
337 -135 -169 18 -155 -158 0
-338 -143 0
-338 158 0
-338 151 0
-338 -15 0
-338 -118 0
338 143 -158 -151 15 118 0
-339 176 0
-339 72 0
-339 150 0
-339 -36 0
-339 -186 0
339 -176 -72 -150 36 186 0
-340 116 0
-340 31 0
-340 121 0
-340 89 0
-340 63 0
340 -116 -31 -121 -89 -63 0
336 337 338 339 340 0
-341 -84 0
-341 -27 0
-341 -36 0
-341 50 0
-341 -44 0
341 84 27 36 -50 44 0
-342 -106 0
-342 144 0
-342 -83 0
-342 -74 0
-342 -162 0
342 106 -144 83 74 162 0
-343 -139 0
-343 -36 0
-343 -59 0
-343 159 0
-343 41 0
343 139 36 59 -159 -41 0
-344 -30 0
-344 -39 0
-344 140 0
-344 121 0
-344 -18 0
344 30 39 -140 -121 18 0
-345 -13 0
-345 -39 0
-345 188 0
-345 -132 0
-345 42 0
345 13 39 -188 132 -42 0
341 342 343 344 345 0
-346 -18 0
-346 49 0
-346 166 0
-346 20 0
-346 -184 0
346 18 -49 -166 -20 184 0
-347 111 0
-347 -10 0
-347 -46 0
-347 -128 0
-347 172 0
347 -111 10 46 128 -172 0
-348 14 0
-348 -124 0
-348 8 0
-348 153 0
-348 -142 0
348 -14 124 -8 -153 142 0
-349 154 0
-349 -58 0
-349 169 0
-349 -43 0
-349 81 0
349 -154 58 -169 43 -81 0
-350 -150 0
-350 83 0
-350 145 0
-350 -24 0
-350 96 0
350 150 -83 -145 24 -96 0
346 347 348 349 350 0
-351 9 0
-351 119 0
-351 -34 0
-351 -137 0
-351 -37 0
351 -9 -119 34 137 37 0
-352 -86 0
-352 -59 0
-352 23 0
-352 -134 0
-352 75 0
352 86 59 -23 134 -75 0
-353 -183 0
-353 -107 0
-353 101 0
-353 147 0
-353 176 0
353 183 107 -101 -147 -176 0
-354 -24 0
-354 -132 0
-354 -43 0
-354 -16 0
-354 92 0
354 24 132 43 16 -92 0
-355 136 0
-355 45 0
-355 20 0
-355 74 0
-355 -10 0
355 -136 -45 -20 -74 10 0
351 352 353 354 355 0
-356 -119 0
-356 89 0
-356 171 0
-356 -133 0
-356 -83 0
356 119 -89 -171 133 83 0
-357 126 0
-357 152 0
-357 90 0
-357 -9 0
-357 -163 0
357 -126 -152 -90 9 163 0
-358 190 0
-358 -93 0
-358 77 0
-358 -187 0
-358 -46 0
358 -190 93 -77 187 46 0
-359 -3 0
-359 90 0
-359 -53 0
-359 134 0
-359 -112 0
359 3 -90 53 -134 112 0
-360 132 0
-360 -145 0
-360 33 0
-360 137 0
-360 -57 0
360 -132 145 -33 -137 57 0
356 357 358 359 360 0
-361 -18 0
-361 -39 0
-361 11 0
-361 163 0
-361 -63 0
361 18 39 -11 -163 63 0
-362 181 0
-362 -86 0
-362 -138 0
-362 -20 0
-362 50 0
362 -181 86 138 20 -50 0
-363 -153 0
-363 136 0
-363 147 0
-363 81 0
-363 -108 0
363 153 -136 -147 -81 108 0
-364 -137 0
-364 53 0
-364 -158 0
-364 106 0
-364 19 0
364 137 -53 158 -106 -19 0
-365 -183 0
-365 -32 0
-365 -157 0
-365 136 0
-365 -135 0
365 183 32 157 -136 135 0
361 362 363 364 365 0
-366 81 0
-366 153 0
-366 126 0
-366 112 0
-366 -127 0
366 -81 -153 -126 -112 127 0
-367 -181 0
-367 171 0
-367 -175 0
-367 69 0
-367 55 0
367 181 -171 175 -69 -55 0
-368 -154 0
-368 151 0
-368 2 0
-368 -155 0
-368 85 0
368 154 -151 -2 155 -85 0
-369 -44 0
-369 -43 0
-369 149 0
-369 -35 0
-369 -116 0
369 44 43 -149 35 116 0
-370 -164 0
-370 -120 0
-370 49 0
-370 13 0
-370 -4 0
370 164 120 -49 -13 4 0
366 367 368 369 370 0
-371 -94 0
-371 -109 0
-371 126 0
-371 135 0
-371 -12 0
371 94 109 -126 -135 12 0
-372 134 0
-372 33 0
-372 -139 0
-372 -133 0
-372 96 0
372 -134 -33 139 133 -96 0
-373 -26 0
-373 -110 0
-373 -59 0
-373 13 0
-373 83 0
373 26 110 59 -13 -83 0
-374 163 0
-374 155 0
-374 -66 0
-374 29 0
-374 62 0
374 -163 -155 66 -29 -62 0
-375 -108 0
-375 156 0
-375 -85 0
-375 50 0
-375 -56 0
375 108 -156 85 -50 56 0
371 372 373 374 375 0
-376 97 0
-376 162 0
-376 146 0
-376 155 0
-376 29 0
376 -97 -162 -146 -155 -29 0
-377 -160 0
-377 -33 0
-377 56 0
-377 163 0
-377 -2 0
377 160 33 -56 -163 2 0
-378 -19 0
-378 92 0
-378 37 0
-378 -11 0
-378 79 0
378 19 -92 -37 11 -79 0
-379 82 0
-379 -76 0
-379 105 0
-379 -70 0
-379 -51 0
379 -82 76 -105 70 51 0
-380 -21 0
-380 -190 0
-380 -15 0
-380 115 0
-380 20 0
380 21 190 15 -115 -20 0
376 377 378 379 380 0
-381 135 0
-381 -107 0
-381 -67 0
-381 7 0
-381 -69 0
381 -135 107 67 -7 69 0
-382 -49 0
-382 -6 0
-382 -39 0
-382 -68 0
-382 154 0
382 49 6 39 68 -154 0
-383 -65 0
-383 97 0
-383 41 0
-383 151 0
-383 108 0
383 65 -97 -41 -151 -108 0
-384 88 0
-384 -176 0
-384 -133 0
-384 31 0
-384 -15 0
384 -88 176 133 -31 15 0
-385 -9 0
-385 -43 0
-385 -7 0
-385 -60 0
-385 68 0
385 9 43 7 60 -68 0
381 382 383 384 385 0
-386 -54 0
-386 82 0
-386 -96 0
-386 -40 0
-386 58 0
386 54 -82 96 40 -58 0
-387 -171 0
-387 44 0
-387 -35 0
-387 -91 0
-387 112 0
387 171 -44 35 91 -112 0
-388 -153 0
-388 -149 0
-388 86 0
-388 169 0
-388 -110 0
388 153 149 -86 -169 110 0
-389 -63 0
-389 65 0
-389 69 0
-389 106 0
-389 -190 0
389 63 -65 -69 -106 190 0
-390 35 0
-390 174 0
-390 184 0
-390 23 0
-390 -39 0
390 -35 -174 -184 -23 39 0
386 387 388 389 390 0
-391 190 0
-391 157 0
-391 -164 0
-391 -172 0
-391 174 0
391 -190 -157 164 172 -174 0
-392 77 0
-392 -153 0
-392 128 0
-392 160 0
-392 -91 0
392 -77 153 -128 -160 91 0
-393 15 0
-393 -109 0
-393 -94 0
-393 101 0
-393 -55 0
393 -15 109 94 -101 55 0
-394 -166 0
-394 -165 0
-394 59 0
-394 -140 0
-394 158 0
394 166 165 -59 140 -158 0
-395 -163 0
-395 179 0
-395 -38 0
-395 -137 0
-395 -17 0
395 163 -179 38 137 17 0
391 392 393 394 395 0
-396 -27 0
-396 -21 0
-396 157 0
-396 23 0
-396 -51 0
396 27 21 -157 -23 51 0
-397 -107 0
-397 60 0
-397 -190 0
-397 -119 0
-397 61 0
397 107 -60 190 119 -61 0
-398 -189 0
-398 144 0
-398 156 0
-398 53 0
-398 -94 0
398 189 -144 -156 -53 94 0
-399 119 0
-399 98 0
-399 70 0
-399 -7 0
-399 -9 0
399 -119 -98 -70 7 9 0
-400 140 0
-400 121 0
-400 -147 0
-400 -86 0
-400 -83 0
400 -140 -121 147 86 83 0
396 397 398 399 400 0
-401 32 0
-401 56 0
-401 -85 0
-401 168 0
-401 -62 0
401 -32 -56 85 -168 62 0
-402 42 0
-402 -58 0
-402 -139 0
-402 -150 0
-402 106 0
402 -42 58 139 150 -106 0
-403 107 0
-403 154 0
-403 31 0
-403 83 0
-403 -182 0
403 -107 -154 -31 -83 182 0
-404 -110 0
-404 119 0
-404 -42 0
-404 -82 0
-404 7 0
404 110 -119 42 82 -7 0
-405 1 0
-405 -37 0
-405 -2 0
-405 -44 0
-405 141 0
405 -1 37 2 44 -141 0
401 402 403 404 405 0
-406 106 0
-406 -187 0
-406 -24 0
-406 102 0
-406 145 0
406 -106 187 24 -102 -145 0
-407 -128 0
-407 171 0
-407 -99 0
-407 -60 0
-407 4 0
407 128 -171 99 60 -4 0
-408 -74 0
-408 -126 0
-408 62 0
-408 -31 0
-408 141 0
408 74 126 -62 31 -141 0
-409 -16 0
-409 141 0
-409 32 0
-409 -83 0
-409 -173 0
409 16 -141 -32 83 173 0
-410 -149 0
-410 101 0
-410 -79 0
-410 -165 0
-410 -10 0
410 149 -101 79 165 10 0
406 407 408 409 410 0
-411 -118 0
-411 -140 0
-411 -9 0
-411 134 0
-411 8 0
411 118 140 9 -134 -8 0
-412 -117 0
-412 -52 0
-412 -27 0
-412 123 0
-412 144 0
412 117 52 27 -123 -144 0
-413 -36 0
-413 -87 0
-413 86 0
-413 12 0
-413 -56 0
413 36 87 -86 -12 56 0
-414 46 0
-414 -2 0
-414 -190 0
-414 79 0
-414 137 0
414 -46 2 190 -79 -137 0
-415 177 0
-415 -51 0
-415 41 0
-415 -171 0
-415 30 0
415 -177 51 -41 171 -30 0
411 412 413 414 415 0
-416 -163 0
-416 18 0
-416 47 0
-416 45 0
-416 165 0
416 163 -18 -47 -45 -165 0
-417 -179 0
-417 53 0
-417 87 0
-417 -79 0
-417 169 0
417 179 -53 -87 79 -169 0
-418 -37 0
-418 97 0
-418 -101 0
-418 38 0
-418 137 0
418 37 -97 101 -38 -137 0
-419 98 0
-419 -150 0
-419 113 0
-419 138 0
-419 162 0
419 -98 150 -113 -138 -162 0
-420 157 0
-420 -50 0
-420 29 0
-420 15 0
-420 152 0
420 -157 50 -29 -15 -152 0
416 417 418 419 420 0
-421 168 0
-421 -98 0
-421 -108 0
-421 -22 0
-421 28 0
421 -168 98 108 22 -28 0
-422 6 0
-422 188 0
-422 7 0
-422 80 0
-422 37 0
422 -6 -188 -7 -80 -37 0
-423 148 0
-423 -85 0
-423 -71 0
-423 -188 0
-423 10 0
423 -148 85 71 188 -10 0
-424 -137 0
-424 70 0
-424 134 0
-424 131 0
-424 146 0
424 137 -70 -134 -131 -146 0
-425 -165 0
-425 171 0
-425 -178 0
-425 -186 0
-425 -135 0
425 165 -171 178 186 135 0
421 422 423 424 425 0
-426 -164 0
-426 -179 0
-426 6 0
-426 38 0
-426 -176 0
426 164 179 -6 -38 176 0
-427 127 0
-427 -163 0
-427 -30 0
-427 52 0
-427 -139 0
427 -127 163 30 -52 139 0
-428 -4 0
-428 59 0
-428 137 0
-428 -79 0
-428 21 0
428 4 -59 -137 79 -21 0
-429 107 0
-429 -56 0
-429 -42 0
-429 -137 0
-429 133 0
429 -107 56 42 137 -133 0
-430 93 0
-430 -64 0
-430 80 0
-430 -155 0
-430 -180 0
430 -93 64 -80 155 180 0
426 427 428 429 430 0
